Generated by Multi-Agent DFT System
1.0
  24.1618610000    0.0000000000    0.0000000000
   0.0000000000   20.7858200000    0.0000000000
   0.0000000000    0.0000000000   27.9560910000
N C H
4 52 36
Cartesian
  17.1312280000   11.7268960000   12.5399520000
  13.7833800000    8.7598460000    8.7211020000
   7.0306320000    9.0589240000   15.4161400000
  10.3784800000   12.0259740000   19.2349890000
  16.2999960000   11.3061680000   13.4638670000
  15.9996830000   12.1209200000   14.5698870000
  15.1078480000   11.7458850000   15.5272770000
  14.4241960000   10.4920090000   15.4455980000
  14.7360450000    9.6719170000   14.3891210000
  15.6123530000   10.0012590000   13.4116450000
  15.9738370000    9.1865070000   12.2882180000
  16.7920530000    9.5805320000   11.3361840000
  17.1578040000    8.8464840000   10.1752640000
  17.9532330000    9.3164640000    9.2192130000
  18.5709660000   10.6130650000    9.3263330000
  18.2191600000   11.3411790000   10.5100160000
  17.3908960000   10.9240120000   11.4941870000
  14.6146120000    8.3391180000    7.7971870000
  14.9149260000    9.1538700000    6.6911670000
  15.8067610000    8.7788350000    5.7337760000
  16.4904130000    7.5249590000    5.8154560000
  16.1785630000    6.7048670000    6.8719330000
  15.3022550000    7.0342090000    7.8494080000
  14.9407710000    6.2194570000    8.9728350000
  14.1225550000    6.6134820000    9.9248700000
  13.7568040000    5.8794340000   11.0857890000
  12.9613750000    6.3494140000   12.0418410000
  12.3436420000    7.6460150000   11.9347200000
  12.6954480000    8.3741290000   10.7510370000
  13.5237120000    7.9569620000    9.7668670000
   7.8618640000    9.4796520000   14.4922240000
   8.1621780000    8.6649000000   13.3862040000
   9.0540130000    9.0399350000   12.4288140000
   9.7376650000   10.2938110000   12.5104930000
   9.4258150000   11.1139030000   13.5669700000
   8.5495080000   10.7845610000   14.5444460000
   8.1880230000   11.5993130000   15.6678730000
   7.3698070000   11.2052880000   16.6199070000
   7.0040560000   11.9393360000   17.7808270000
   6.2086270000   11.4693560000   18.7368780000
   5.5908950000   10.1727550000   18.6297580000
   5.9427000000    9.4446410000   17.4460750000
   6.7709640000    9.8618080000   16.4619050000
   9.5472480000   12.4467020000   20.1589040000
   9.2469350000   11.6319500000   21.2649250000
   8.3551000000   12.0069850000   22.2223150000
   7.6714480000   13.2608610000   22.1406350000
   7.9832970000   14.0809530000   21.0841590000
   8.8596050000   13.7516110000   20.1066830000
   9.2210890000   14.5663630000   18.9832560000
  10.0393060000   14.1723380000   18.0312210000
  10.4050560000   14.9063860000   16.8703020000
  11.2004850000   14.4364060000   15.9142500000
  11.8182180000   13.1398050000   16.0213710000
  11.4664120000   12.4116910000   17.2050540000
  10.6381480000   12.8288580000   18.1892240000
  16.4326030000   12.9623750000   14.6529050000
  14.9380790000   12.3250530000   16.2610530000
  13.7792440000   10.2374370000   16.0950160000
  14.3125100000    8.8233410000   14.3422560000
  15.6018290000    8.3147880000   12.2279630000
  16.8126610000    7.9670500000   10.0761780000
  18.1180890000    8.7859560000    8.4492840000
  19.1618610000   10.9572430000    8.6662030000
  18.6069870000   12.2022170000   10.6144590000
  14.4820050000    9.9953250000    6.6081480000
  15.9765290000    9.3580030000    5.0000000000
  17.1353640000    7.2703870000    5.1660370000
  16.6020980000    5.8562910000    6.9187980000
  15.3127790000    5.3477380000    9.0330910000
  14.1019470000    5.0000000000   11.1848760000
  12.7965190000    5.8189060000   12.8117700000
  11.7527480000    7.9901930000   12.5948510000
  12.3076210000    9.2351670000   10.6465950000
   7.7292570000    7.8234450000   13.3031860000
   9.2237810000    8.4607670000   11.6950380000
  10.3826170000   10.5483830000   11.8610750000
   9.8493500000   11.9624790000   13.6138360000
   8.5600310000   12.4710320000   15.7281280000
   7.3491990000   12.8187700000   17.8799140000
   6.0437710000   11.9998640000   19.5068080000
   5.0000000000    9.8285770000   19.2898880000
   5.5548730000    8.5836030000   17.3416320000
   9.6798550000   10.7904950000   21.3479430000
   8.1853310000   11.4278170000   22.9560910000
   7.0264960000   13.5154330000   22.7900540000
   7.5597620000   14.9295290000   21.0372930000
   8.8490820000   15.4380820000   18.9230000000
  10.0599130000   15.7858200000   16.7712150000
  11.3653410000   14.9669140000   15.1443210000
  12.4091130000   12.7956270000   15.3612400000
  11.8542390000   11.5506530000   17.3094960000