Generated by Multi-Agent DFT System
1.0
  21.1473900000    0.0000000000    0.0000000000
   0.0000000000   38.4706240000    0.0000000000
   0.0000000000    0.0000000000   26.0119400000
N C H
8 104 72
Cartesian
   9.0358230000   14.8280690000    8.5513360000
   9.7661090000   26.2345690000   10.8940280000
  12.1115670000   23.6425550000   17.4606050000
  11.3812820000   12.2360550000   15.1179130000
   8.5335870000    8.0658390000   18.1901510000
   8.9023620000   19.4723390000   14.3883660000
  12.6138030000   30.4047850000    7.8217900000
  12.2450290000   18.9982850000   11.6235750000
  12.2105650000   16.7642080000    8.6588970000
  12.0350050000   17.5362000000    7.5574190000
  10.8562180000   17.4237320000    6.7840080000
   9.8832310000   16.5422370000    7.1241570000
   8.1133150000   13.1807420000   10.0017620000
   8.1637990000   12.4593950000   11.1527510000
   9.2670730000   12.5631940000   12.0349050000
  10.3053290000   13.3719150000   11.7369140000
  11.3167270000   15.0427390000   10.2063760000
  11.2087070000   15.8288750000    9.0611650000
  10.0263360000   15.6979280000    8.2639830000
   9.1659390000   14.0766080000    9.6646340000
  10.3027850000   14.1642100000   10.5442920000
   6.5913670000   28.1707080000   10.7864680000
   6.7669270000   28.9427000000   11.8879450000
   7.9457140000   28.8302320000   12.6613570000
   8.9187010000   27.9487370000   12.3212080000
  10.6886170000   24.5872420000    9.4436030000
  10.6381330000   23.8658950000    8.2926130000
   9.5348600000   23.9696940000    7.4104590000
   8.4966030000   24.7784150000    7.7084510000
   7.4852060000   26.4492390000    9.2389880000
   7.5932260000   27.2353750000   10.3841990000
   8.7755970000   27.1044280000   11.1813820000
   9.6359930000   25.4831080000    9.7807310000
   8.4991470000   25.5707100000    8.9010720000
   8.9368250000   21.7064160000   17.3530440000
   9.1123860000   20.9344240000   18.4545220000
  10.2911730000   21.0468920000   19.2279330000
  11.2641600000   21.9283870000   18.8877840000
  13.0340760000   25.2898820000   16.0101790000
  12.9835910000   26.0112290000   14.8591900000
  11.8803180000   25.9074300000   13.9770360000
  10.8420620000   25.0987090000   14.2750270000
   9.8306640000   23.4278850000   15.8055650000
   9.9386840000   22.6417490000   16.9507760000
  11.1210550000   22.7726960000   17.7479580000
  11.9814520000   24.3940160000   16.3473070000
  10.8446060000   24.3064140000   15.4676490000
  14.5560240000   10.2999160000   15.2254730000
  14.3804630000    9.5279240000   14.1239960000
  13.2016770000    9.6403920000   13.3505840000
  12.2286900000   10.5218870000   13.6907330000
  10.4587740000   13.8833820000   16.5683380000
  10.5092580000   14.6047290000   17.7193280000
  11.6125310000   14.5009300000   18.6014820000
  12.6507880000   13.6922090000   18.3034900000
  13.6621850000   12.0213850000   16.7729530000
  13.5541650000   11.2352490000   15.6277420000
  12.3717940000   11.3661960000   14.8305590000
  11.5113980000   12.9875160000   16.2312100000
  12.6482430000   12.8999140000   17.1108690000
  10.3174790000   11.1143400000   19.3651740000
   9.3806600000   11.6075570000   20.2077980000
   8.1567100000   10.9081110000   20.4101790000
   7.8988340000    9.7446480000   19.7565420000
   9.1287160000    6.3612520000   16.6320340000
  10.0114460000    5.8146520000   15.7678730000
  11.2602460000    6.4319720000   15.5012700000
  11.5984010000    7.5842570000   16.1342870000
  11.0067390000    9.3563700000   17.7580710000
  10.0930290000    9.9086730000   18.6463970000
   8.8474740000    9.2060330000   18.8410300000
   9.4402670000    7.5680590000   17.3228380000
  10.7152760000    8.1892570000   17.0721260000
   7.1184700000   22.5208400000   13.2133430000
   8.0552890000   23.0140570000   12.3707200000
   9.2792390000   22.3146110000   12.1683380000
   9.5371150000   21.1511480000   12.8219750000
   8.3072330000   17.7677520000   15.9464830000
   7.4245030000   17.2211520000   16.8106450000
   6.1757030000   17.8384720000   17.0772480000
   5.8375480000   18.9907570000   16.4442300000
   6.4292100000   20.7628700000   14.8204470000
   7.3429210000   21.3151730000   13.9321200000
   8.5884750000   20.6125330000   13.7374870000
   7.9956820000   18.9745590000   15.2556800000
   6.7206730000   19.5957570000   15.5063910000
  10.8299120000   27.3562840000    6.6467660000
  11.7667300000   26.8630670000    5.8041430000
  12.9906810000   27.5625130000    5.6017620000
  13.2485570000   28.7259760000    6.2553990000
  12.0186750000   32.1093720000    9.3799070000
  11.1359450000   32.6559720000   10.2440680000
   9.8871440000   32.0386520000   10.5106710000
   9.5489900000   30.8863670000    9.8776530000
  10.1406510000   29.1142540000    8.2538700000
  11.0543620000   28.5619510000    7.3655440000
  12.2999170000   29.2645910000    7.1709110000
  11.7071240000   30.9025650000    8.6891030000
  10.4321140000   30.2813670000    8.9398150000
  14.0289210000   15.9497840000   12.7985980000
  13.0921020000   15.4565670000   13.6412210000
  11.8681520000   16.1560130000   13.8436030000
  11.6102760000   17.3194760000   13.1899660000
  12.8401580000   20.7028720000   10.0654580000
  13.7228870000   21.2494720000    9.2012960000
  14.9716880000   20.6321520000    8.9346930000
  15.3098430000   19.4798670000    9.5677110000
  14.7181810000   17.7077540000   11.1914940000
  13.8044700000   17.1554510000   12.0798210000
  12.5589160000   17.8580910000   12.2744540000
  13.1517090000   19.4960650000   10.7562610000
  14.4267180000   18.8748670000   10.5055490000
  13.0085600000   16.8467910000    9.1684630000
  12.7082860000   18.1562570000    7.3035550000
  10.7440430000   17.9714720000    6.0165060000
   9.0956840000   16.4863450000    6.5956790000
   7.3702830000   13.0849270000    9.4179930000
   7.4465210000   11.8758380000   11.3695800000
   9.2765590000   12.0606240000   12.8404930000
  11.0483120000   13.4157160000   12.3269860000
  12.0887230000   15.1107220000   10.7562610000
   5.7933730000   28.2532910000   10.2769010000
   6.0936460000   29.5627570000   12.1418090000
   8.0578900000   29.3779720000   13.4288580000
   9.7062490000   27.8928450000   12.8496860000
  11.4316500000   24.4914270000   10.0273710000
  11.3554120000   23.2823380000    8.0757850000
   9.5253730000   23.4671230000    6.6048720000
   7.7536200000   24.8222160000    7.1183780000
   6.7132100000   26.5172220000    8.6891030000
   8.1388310000   21.6238330000   16.8434780000
   8.4391040000   20.3143670000   18.7083850000
  10.4033480000   20.4991520000   19.9954340000
  12.0517070000   21.9842790000   19.4162620000
  13.7771080000   25.3856970000   16.5939480000
  13.7008700000   26.5947860000   14.6423610000
  11.8708310000   26.4100000000   13.1714480000
  10.0990790000   25.0549080000   13.6849540000
   9.0586680000   23.3599020000   15.2556800000
  15.3540180000   10.2173330000   15.7350400000
  15.0537450000    8.9078670000   13.8701320000
  13.0895010000    9.0926520000   12.5830830000
  11.4411420000   10.5777790000   13.1622550000
   9.7157410000   13.9791970000   15.9845700000
   9.7919790000   15.1882860000   17.9361560000
  11.6220180000   15.0035010000   19.4070690000
  13.3937700000   13.6484080000   18.8935630000
  14.4341810000   11.9534020000   17.3228380000
  11.1372310000   11.5815510000   19.2520980000
   9.5400930000   12.4233500000   20.6665390000
   7.5108410000   11.2598870000   21.0119400000
   7.0801900000    9.2865630000   19.9113820000
   8.2919650000    5.9376140000   16.7804390000
   9.7910350000    5.0000000000   15.3305390000
  11.8610300000    6.0379920000   14.8787580000
  12.4359490000    7.9930660000   15.9491100000
  11.8430580000    9.7838860000   17.6196470000
   6.2987180000   22.9880500000   13.3264190000
   7.8958570000   23.8298500000   11.9119790000
   9.9251080000   22.6663870000   11.5665770000
  10.3557590000   20.6930630000   12.6671350000
   9.1439840000   17.3441140000   15.7980790000
   7.6449140000   16.4065000000   17.2479790000
   5.5749200000   17.4444910000   17.6997590000
   5.0000000000   19.3995660000   16.6294070000
   5.5928910000   21.1903860000   14.9588700000
  10.0101600000   26.8890730000    6.7598430000
  11.6072980000   26.0472740000    5.3454020000
  13.6365490000   27.2107370000    5.0000000000
  14.0672010000   29.1840610000    6.1005590000
  12.8554260000   32.5330100000    9.2315020000
  11.3563560000   33.4706240000   10.6814020000
   9.2863610000   32.4326320000   11.1331830000
   8.7114420000   30.4775580000   10.0628310000
   9.3043330000   28.6867380000    8.3922940000
  14.8486720000   15.4825730000   12.6855220000
  13.2515340000   14.6407740000   14.0999620000
  11.2222830000   15.8042370000   14.4453640000
  10.7916310000   17.7775610000   13.3448060000
  12.0034060000   21.1265100000   10.2138620000
  13.5024770000   22.0641240000    8.7639620000
  15.5724710000   21.0261330000    8.3121820000
  16.1473900000   19.0710580000    9.3825340000
  15.5545000000   17.2802380000   11.0530710000