Generated by Multi-Agent DFT System
1.0
  22.4309590000    0.0000000000    0.0000000000
   0.0000000000   34.6632600000    0.0000000000
   0.0000000000    0.0000000000   28.7124610000
N C H
8 104 72
Cartesian
   9.6764960000   15.8883270000   14.9844290000
  12.0146340000   25.3118270000   21.8463910000
  12.7544630000   18.7749330000   13.7280320000
  10.4163240000    9.3514330000    6.8660700000
   6.4401610000   15.3741810000   20.1834260000
  15.2509690000   24.7976810000   16.6473940000
  15.9907970000   19.2890790000    8.5290340000
   7.1799900000    9.8655790000   12.0650670000
  10.1810150000   16.8668630000   15.7561600000
  10.4229260000   14.7850230000   14.7668570000
  11.7292640000   14.6118190000   15.3327070000
  11.4807520000   16.7758320000   16.3677970000
  12.2301280000   15.6316310000   16.1245710000
   9.4037750000   18.0319850000   15.9787660000
   9.9115920000   13.7612540000   13.9366730000
  11.9203230000   17.8484150000   17.1794710000
  12.4349310000   13.4137160000   15.0428810000
  11.1410830000   18.9383370000   17.3773970000
   9.8675360000   19.0304990000   16.7581280000
  10.6246200000   12.6374080000   13.6793210000
  11.9125250000   12.4604340000   14.2409500000
  11.5101150000   26.2903630000   21.0746600000
  11.2682040000   24.2085230000   22.0639630000
   9.9618660000   24.0353190000   21.4981130000
  10.2103780000   26.1993320000   20.4630230000
   9.4610020000   25.0551310000   20.7062490000
  12.2873550000   27.4554850000   20.8520540000
  11.7795380000   23.1847540000   22.8941460000
   9.7708070000   27.2719150000   19.6513490000
   9.2561990000   22.8372160000   21.7879390000
  10.5500470000   28.3618370000   19.4534230000
  11.8235940000   28.4539990000   20.0726920000
  11.0665100000   22.0609080000   23.1514980000
   9.7786060000   21.8839340000   22.5898700000
  12.2499430000   17.7963970000   12.9563000000
  12.0080330000   19.8782370000   13.9456040000
  10.7016950000   20.0514410000   13.3797540000
  10.9502060000   17.8874280000   12.3446630000
  10.2008310000   19.0316290000   12.5878890000
  13.0271830000   16.6312750000   12.7336950000
  12.5193660000   20.9020060000   14.7757870000
  10.5106350000   16.8148450000   11.5329900000
   9.9960280000   21.2495440000   13.6695790000
  11.2898760000   15.7249230000   11.3350640000
  12.5634220000   15.6327610000   11.9543330000
  11.8063390000   22.0258520000   15.0331390000
  10.5184340000   22.2028260000   14.4715110000
  10.9208440000    8.3728970000    7.6378010000
  11.1627550000   10.4547370000    6.6484980000
  12.4690920000   10.6279410000    7.2143470000
  12.2205810000    8.4639280000    8.2494380000
  12.9699560000    9.6081290000    8.0062120000
  10.1436040000    7.2077750000    7.8604060000
  10.6514210000   11.4785060000    5.8183140000
  12.6601520000    7.3913450000    9.0611120000
  13.1747600000   11.8260440000    6.9245220000
  11.8809120000    6.3014230000    9.2590370000
  10.6073650000    6.2092610000    8.6397690000
  11.3644480000   12.6023520000    5.5609620000
  12.6523530000   12.7793260000    6.1225900000
   7.3245960000   14.6427290000   19.4772910000
   8.5949610000   15.1700680000   19.0457190000
   6.7544660000   16.6489920000   20.4779600000
   7.9923060000   17.2577500000   20.0835700000
   8.8933960000   16.4799340000   19.3678560000
   7.0009320000   13.3042150000   19.1389180000
   5.8195310000   17.4294460000   21.1987080000
   9.4569630000   14.3272300000   18.2993170000
   8.2186840000   18.6164300000   20.4237300000
   7.8521420000   12.5446800000   18.4110260000
   9.1061030000   13.0629730000   17.9796160000
   6.0652720000   18.7221620000   21.5062320000
   7.2909130000   19.3292240000   21.1058340000
  14.3665340000   24.0662290000   17.3535290000
  13.0961690000   24.5935680000   17.7851010000
  14.9366640000   26.0724920000   16.3528600000
  13.6988240000   26.6812500000   16.7472490000
  12.7977340000   25.9034340000   17.4629640000
  14.6901980000   22.7277150000   17.6919020000
  15.8715990000   26.8529460000   15.6321120000
  12.2341670000   23.7507300000   18.5315020000
  13.4724460000   28.0399300000   16.4070900000
  13.8389880000   21.9681800000   18.4197940000
  12.5850270000   22.4864730000   18.8512030000
  15.6258580000   28.1456620000   15.3245880000
  14.4002170000   28.7527240000   15.7249860000
  15.1063630000   20.0205310000    9.2351690000
  13.8359970000   19.4931920000    9.6667410000
  15.6764930000   18.0142680000    8.2345000000
  14.4386530000   17.4055100000    8.6288900000
  13.5375630000   18.1833260000    9.3446050000
  15.4300270000   21.3590450000    9.5735420000
  16.6114280000   17.2338140000    7.5137520000
  12.9739950000   20.3360300000   10.4131430000
  14.2122750000   16.0468300000    8.2887310000
  14.5788170000   22.1185800000   10.3014350000
  13.3248550000   21.6002870000   10.7328440000
  16.3656860000   15.9410980000    7.2062290000
  15.1400460000   15.3340360000    7.6066260000
   8.0644240000   10.5970310000   11.3589320000
   9.3347900000   10.0696920000   10.9273600000
   7.4942940000    8.5907680000   12.3596010000
   8.7321350000    7.9820100000   11.9652110000
   9.6332250000    8.7598260000   11.2494970000
   7.7407610000   11.9355450000   11.0205590000
   6.5593600000    7.8103140000   13.0803490000
  10.1967920000   10.9125300000   10.1809580000
   8.9585120000    6.6233300000   12.3053700000
   8.5919710000   12.6950800000   10.2926670000
   9.8459320000   12.1767870000    9.8612570000
   6.8051010000    6.5175980000   13.3878720000
   8.0307410000    5.9105360000   12.9874750000
  13.0961200000   15.5477050000   16.5059230000
   8.5476480000   18.1099360000   15.5748280000
   9.0498290000   13.8632730000   13.5506130000
  12.7749290000   17.8035020000   17.5917860000
  13.2957360000   13.2794870000   15.4221380000
  11.4482160000   19.6445530000   17.9336020000
   9.3349320000   19.8053930000   16.8939320000
  10.2575950000   11.9640420000   13.1183590000
  12.4081380000   11.6719320000   14.0543730000
   8.5950100000   24.9712050000   20.3248970000
  13.1434820000   27.5334360000   21.2559910000
  12.6413010000   23.2867730000   23.2802070000
   8.9162010000   27.2270020000   19.2390340000
   8.3953940000   22.7029870000   21.4086810000
  10.2429140000   29.0680530000   18.8972180000
  12.3561980000   29.2288930000   19.9368880000
  11.4335350000   21.3875420000   23.7124610000
   9.2829920000   21.0954320000   22.7764460000
   9.3348390000   19.1155550000   12.2065370000
  13.8833110000   16.5533240000   13.1376320000
  13.3811290000   20.7999870000   15.1618480000
   9.6560300000   16.8597580000   11.1206740000
   9.1352230000   21.3837730000   13.2903220000
  10.9827430000   15.0187070000   10.7788590000
  13.0960260000   14.8578670000   11.8185290000
  12.1733640000   22.6992180000   15.5941010000
  10.0228200000   22.9913280000   14.6580870000
  13.8359480000    9.6920550000    8.3875640000
   9.2874760000    7.1298240000    7.4564690000
   9.7896580000   11.3764870000    5.4322540000
  13.5147570000    7.4362580000    9.4734270000
  14.0355640000   11.9602730000    7.3037790000
  12.1880450000    5.5952070000    9.8152420000
  10.0747610000    5.4343670000    8.7755730000
  10.9974230000   13.2757180000    5.0000000000
  13.1479670000   13.5678280000    5.9360140000
   9.7240180000   16.8527650000   19.0969460000
   6.1741030000   12.9355670000   19.4272820000
   5.0000000000   17.0351670000   21.4728000000
  10.3010950000   14.6595780000   18.0173830000
   9.0339070000   19.0324960000   20.1687970000
   7.6095760000   11.6542920000   18.1850270000
   9.6946710000   12.5204060000   17.4681110000
   5.4211170000   19.2262810000   21.9891930000
   7.4584480000   20.2397600000   21.3196070000
  11.9671120000   26.2762650000   17.7338740000
  15.5170270000   22.3590670000   17.4035380000
  16.6911300000   26.4586670000   15.3580200000
  11.3900350000   24.0830780000   18.8134370000
  12.6572230000   28.4559960000   16.6620230000
  14.0815540000   21.0777920000   18.6457930000
  11.9964590000   21.9439060000   19.3627090000
  16.2700130000   28.6497810000   14.8416270000
  14.2326820000   29.6632600000   15.5112130000
  12.7069400000   17.8104950000    9.6155140000
  16.2568560000   21.7276930000    9.2851780000
  17.4309590000   17.6280930000    7.2396600000
  12.1298630000   20.0036820000   10.6950780000
  13.3970520000   15.6307640000    8.5436640000
  14.8213830000   23.0089680000   10.5274330000
  12.7362880000   22.1428540000   11.2443500000
  17.0098410000   15.4369790000    6.7232680000
  14.9725100000   14.4235000000    7.3928540000
  10.4638470000    8.3869950000   10.9785870000
   6.9139320000   12.3041930000   11.3089230000
   5.7398290000    8.2045930000   13.3544410000
  11.0409240000   10.5801820000    9.8990240000
   9.7737360000    6.2072640000   12.0504380000
   8.3494050000   13.5854680000   10.0666680000
  10.4344990000   12.7193540000    9.3497520000
   6.1609460000    6.0134790000   13.8708340000
   8.1982770000    5.0000000000   13.2012480000