Generated by Multi-Agent DFT System
1.0
  21.7712530000    0.0000000000    0.0000000000
   0.0000000000   34.7972000000    0.0000000000
   0.0000000000    0.0000000000   28.7201290000
N C H D
8 104 40 32
Cartesian
   9.3989090000   18.8238280000   13.7388030000
  13.1111140000    9.4238280000    6.9150870000
  12.3723440000   15.9733720000   14.9813260000
   8.6601390000   25.3733720000   21.8050420000
   9.8878150000    9.9419560000   12.0881270000
  12.6222070000   19.3419560000    8.5657620000
  11.8834370000   24.8552440000   16.6320010000
   9.1490450000   15.4552440000   20.1543670000
   7.5836260000   17.9374080000   12.3539910000
   7.3416950000   20.1027920000   13.3924380000
   8.8857220000   17.8496120000   12.9581520000
   8.6513490000   19.9247560000   13.9530420000
   9.6691190000   16.6774320000   12.7408480000
   9.1793120000   20.9518000000   14.7941890000
   7.1361850000   16.8552800000   11.5375260000
   6.8290140000   19.0823280000   12.6003340000
   6.6308910000   21.3093760000   13.6873400000
   9.1995000000   15.6755800000   11.9526150000
   7.9255580000   15.7645040000   11.3368380000
   8.4599860000   22.0747240000   15.0553740000
   7.1696050000   22.2591520000   14.4936410000
  14.9263970000    8.5374080000    8.2998990000
  15.1683270000   10.7027920000    7.2614510000
  13.6243000000    8.4496120000    7.6957370000
  13.8586730000   10.5247560000    6.7008470000
  12.8409030000    7.2774320000    7.9130420000
  13.3307100000   11.5518000000    5.8597000000
  15.3738370000    7.4552800000    9.1163640000
  15.6810080000    9.6823280000    8.0535560000
  15.8791310000   11.9093760000    6.9665490000
  13.3105220000    6.2755800000    8.7012750000
  14.5844640000    6.3645040000    9.3170520000
  14.0500360000   12.6747240000    5.5985150000
  15.3404180000   12.8591520000    6.1602480000
  14.1876270000   16.8597920000   16.3661380000
  14.4295570000   14.6944080000   15.3276910000
  12.8855300000   16.9475880000   15.7619770000
  13.1199030000   14.8724440000   14.7670870000
  12.1021330000   18.1197680000   15.9792810000
  12.5919400000   13.8454000000   13.9259390000
  14.6350670000   17.9419200000   17.1826030000
  14.9422390000   15.7148720000   16.1197950000
  15.1403610000   13.4878240000   15.0327890000
  12.5717520000   19.1216200000   16.7675140000
  13.8456940000   19.0326960000   17.3832910000
  13.3112660000   12.7224760000   13.6647550000
  14.6016480000   12.5380480000   14.2264880000
   6.8448560000   26.2597920000   20.4202300000
   6.6029250000   24.0944080000   21.4586780000
   8.1469520000   26.3475880000   21.0243920000
   7.9125790000   24.2724440000   22.0192810000
   8.9303490000   27.5197680000   20.8070870000
   8.4405430000   23.2454000000   22.8604290000
   6.3974150000   27.3419200000   19.6037650000
   6.0902440000   25.1148720000   20.6665730000
   5.8921210000   22.8878240000   21.7535800000
   8.4607300000   28.5216200000   20.0188540000
   7.1867880000   28.4326960000   19.4030770000
   7.7212160000   22.1224760000   23.1216140000
   6.4308350000   21.9380480000   22.5598810000
  10.2054940000    8.6628040000   12.3875460000
  10.7839100000   10.6633120000   11.3844290000
  12.0522370000   10.1433040000   10.9562730000
  11.4446320000    8.0501120000   11.9961720000
  12.3562790000    8.8203480000   11.2837620000
  10.4540940000   12.0103320000   11.0366120000
   9.2557530000    7.8880560000   13.1078610000
  10.7284780000    5.9742160000   13.0189710000
  12.9265850000   10.9817840000   10.1994980000
  11.6660660000    6.6767720000   12.3422140000
   9.5053700000    6.5857800000   13.4129270000
  12.5664280000   12.2504080000    9.8799140000
  11.3141420000   12.7702280000   10.3085540000
  12.3045280000   18.0628040000    8.2663430000
  11.7261130000   20.0633120000    9.2694610000
  10.4577860000   19.5433040000    9.6976170000
  11.0653900000   17.4501120000    8.6577170000
  10.1537430000   18.2203480000    9.3701270000
  12.0559280000   21.4103320000    9.6172770000
  13.2542690000   17.2880560000    7.5460280000
  11.7815440000   15.3742160000    7.6349180000
   9.5834370000   20.3817840000   10.4543910000
  10.8439560000   16.0767720000    8.3116750000
  13.0046520000   15.9857800000    7.2409630000
   9.9435940000   21.6504080000   10.7739760000
  11.1958800000   22.1702280000   10.3453360000
  11.5657580000   26.1343960000   16.3325830000
  10.9873430000   24.1338880000   17.3357000000
   9.7190160000   24.6538960000   17.7638560000
  10.3266200000   26.7470880000   16.7239570000
   9.4149730000   25.9768520000   17.4363670000
  11.3171580000   22.7868680000   17.6835160000
  12.5154990000   26.9091440000   15.6122670000
  11.0427740000   28.8229840000   15.7011570000
   8.8446670000   23.8154160000   18.5206310000
  10.1051860000   28.1204280000   16.3779150000
  12.2658820000   28.2114200000   15.3072020000
   9.2048240000   22.5467920000   18.8402150000
  10.4571100000   22.0269720000   18.4115750000
   9.4667250000   16.7343960000   20.4537860000
  10.0451400000   14.7338880000   19.4506680000
  11.3134670000   15.2538960000   19.0225120000
  10.7058620000   17.3470880000   20.0624120000
  11.6175090000   16.5768520000   19.3500020000
   9.7153240000   13.3868680000   19.1028520000
   8.5169830000   17.5091440000   21.1741010000
   9.9897080000   19.4229840000   21.0852110000
  12.1878150000   14.4154160000   18.2657380000
  10.9272960000   18.7204280000   20.4084530000
   8.7666000000   18.8114200000   21.4791660000
  11.8276590000   13.1467920000   17.9461530000
  10.5753720000   12.6269720000   18.3747930000
   5.9171140000   19.1545200000   12.2241240000
   6.2221510000   16.9229600000   11.1384080000
   5.7387690000   21.3879600000   13.3130670000
   7.5630250000   15.0128800000   10.7592950000
   6.6635840000   23.1081600000   14.7036860000
  16.5929080000    9.7545200000    8.4297650000
  16.2878710000    7.5229600000    9.5154810000
  16.7712530000   11.9879600000    7.3408230000
  14.9469970000    5.6128800000    9.8945940000
  15.8464390000   13.7081600000    5.9502030000
  15.8541380000   15.6426800000   16.4960050000
  15.5491010000   17.8742400000   17.5817210000
  16.0324830000   13.4092400000   15.4070620000
  14.2082270000   19.7843200000   17.9608340000
  15.1076690000   11.6890400000   14.0164430000
   5.1783450000   25.0426800000   20.2903640000
   5.4833810000   27.2742400000   19.2046480000
   5.0000000000   22.8092400000   21.3793060000
   6.8242550000   29.1843200000   18.8255350000
   5.9248140000   21.0890400000   22.7699260000
  13.8058760000   10.6118000000    9.9413780000
  13.2070490000    8.4366400000   10.9996690000
  13.1878510000   12.8320800000    9.3606090000
  10.8725360000    5.0000000000   13.2485370000
  12.5487850000    6.2859200000   12.0466670000
   8.7041460000   20.0118000000   10.7125110000
   9.3029730000   17.8366400000    9.6542200000
   9.3221710000   22.2320800000   11.2932800000
  11.6374870000   14.4000000000    7.4053530000
   9.9612370000   15.6859200000    8.6072220000
   7.9653760000   24.1854000000   18.7787500000
   8.5642040000   26.3605600000   17.7204600000
   8.5834020000   21.9651200000   19.3595200000
  10.8987170000   29.7972000000   15.4715920000
   9.2224670000   28.5112800000   16.6734620000
  13.0671060000   14.7854000000   18.0076180000
  12.4682790000   16.9605600000   19.0659090000
  12.4490810000   12.5651200000   17.4268490000
  10.1337660000   20.3972000000   21.3147760000
  11.8100160000   19.1112800000   20.1129060000
   9.7384410000   14.8455600000   11.8321050000
  10.5324370000   16.6184000000   13.1985260000
  10.0717990000   20.7920000000   15.1908870000
   8.8562750000   22.7979600000   15.6538890000
  12.7715820000    5.4455600000    8.8217840000
  11.9775850000    7.2184000000    7.4553630000
  12.4382230000   11.3920000000    5.4630020000
  13.6537470000   13.3979600000    5.0000000000
  12.0328120000   19.9516400000   16.8880240000
  11.2388150000   18.1788000000   15.5216030000
  11.6994530000   14.0052000000   13.5292420000
  12.9149770000   11.9992400000   13.0662400000
   8.9996710000   29.3516400000   19.8983440000
   9.7936670000   27.5788000000   21.2647650000
   9.3330290000   23.4052000000   23.2571270000
   8.1175060000   21.3992400000   23.7201290000
   9.5842500000   12.3451600000   11.3368380000
   8.4190570000    8.3219600000   13.3630770000
   8.8280970000    6.0509200000   13.9148080000
  11.0736450000   13.7175600000   10.0623720000
  12.9257720000   21.7451600000    9.3170520000
  14.0909650000   17.7219600000    7.2908120000
  13.6819250000   15.4509200000    6.7390810000
  11.4363770000   23.1175600000   10.5915170000
  12.1870020000   22.4520400000   17.3832910000
  13.3521950000   26.4752400000   15.3570520000
  12.9431550000   28.7462800000   14.8053210000
  10.6976080000   21.0796400000   18.6577570000
   8.8454800000   13.0520400000   19.4030770000
   7.6802870000   17.0752400000   21.4293170000
   8.0893270000   19.3462800000   21.9810480000
  10.3348750000   11.6796400000   18.1286120000