Generated by Multi-Agent DFT System
1.0
  21.3555930000    0.0000000000    0.0000000000
   0.0000000000   24.5114940000    0.0000000000
   0.0000000000    0.0000000000   24.3106120000
N C H
4 52 36
Cartesian
   6.8826830000    7.3686430000    9.1183060000
   8.9507920000   13.5595530000   11.8549430000
  14.4729100000   17.1428510000   15.1923060000
  12.4048010000   10.9519410000   12.4556690000
   6.5850470000    6.1019820000    7.1359120000
   7.1065450000    5.4705100000    6.0345820000
   8.4850420000    5.4754620000    5.7655910000
   9.3352950000    6.1490330000    6.5972620000
   9.6767710000    7.4936990000    8.6470700000
   9.8995680000    8.9002740000   10.6708470000
   9.3261370000    9.4673610000   11.7728440000
   7.9313400000    9.3584010000   11.9617390000
   7.1388070000    8.6650190000   11.0940250000
   7.4304700000    6.7928880000    8.0703740000
   8.8427740000    6.8114610000    7.7713460000
   9.1200020000    8.1140280000    9.7564090000
   7.6907760000    8.0186880000    9.9299520000
   9.2484290000   12.2928920000   13.8373370000
   8.7269300000   11.6614200000   14.9386670000
   7.3484330000   11.6663720000   15.2076580000
   6.4981810000   12.3399430000   14.3759870000
   6.1567040000   13.6846090000   12.3261790000
   5.9339070000   15.0911840000   10.3024020000
   6.5073380000   15.6582710000    9.2004050000
   7.9021360000   15.5493110000    9.0115100000
   8.6946680000   14.8559290000    9.8792240000
   8.4030050000   12.9837980000   12.9028750000
   6.9907010000   13.0023710000   13.2019030000
   6.7134730000   14.3049380000   11.2168400000
   8.1427000000   14.2095980000   11.0432970000
  14.7705460000   18.4095120000   17.1747000000
  14.2490480000   19.0409840000   18.2760300000
  12.8705510000   19.0360320000   18.5450210000
  12.0202980000   18.3624610000   17.7133500000
  11.6788220000   17.0177950000   15.6635420000
  11.4560250000   15.6112200000   13.6397650000
  12.0294560000   15.0441330000   12.5377680000
  13.4242530000   15.1530930000   12.3488730000
  14.2167860000   15.8464750000   13.2165870000
  13.9251230000   17.7186060000   16.2402380000
  12.5128190000   17.7000330000   16.5392660000
  12.2355900000   16.3974660000   14.5542030000
  13.6648170000   16.4928060000   14.3806600000
  12.1071640000   12.2186020000   10.4732750000
  12.6286620000   12.8500740000    9.3719450000
  14.0071600000   12.8451220000    9.1029540000
  14.8574120000   12.1715510000    9.9346250000
  15.1988880000   10.8268850000   11.9844330000
  15.4216860000    9.4203100000   14.0082100000
  14.8482550000    8.8532230000   15.1102070000
  13.4534570000    8.9621830000   15.2991020000
  12.6609250000    9.6555650000   14.4313880000
  12.9525880000   11.5276960000   11.4077370000
  14.3648920000   11.5091230000   11.1087090000
  14.6421200000   10.2065560000   13.0937720000
  13.2128930000   10.3018960000   13.2673150000
   5.6485460000    6.0896010000    7.2894310000
   6.5214710000    5.0000000000    5.4538810000
   8.8251860000    5.0272400000    5.0000000000
  10.2672590000    6.1527480000    6.4130390000
  10.6122630000    7.5320830000    8.4902140000
  10.8334750000    8.9993280000   10.5266730000
   9.8569000000    9.9651100000   12.3889210000
   7.5426010000    9.7670010000   12.7293320000
   6.2034350000    8.6031100000   11.2475430000
  10.1849290000   12.2805110000   13.6838180000
   9.3120040000   11.1909100000   15.5193680000
   7.0082900000   11.2181500000   15.9732490000
   5.5662170000   12.3436580000   14.5602100000
   5.2212120000   13.7229930000   12.4830350000
   5.0000000000   15.1902380000   10.4465760000
   5.9765750000   16.1560200000    8.5843280000
   8.2908750000   15.9579110000    8.2439170000
   9.6300400000   14.7940200000    9.7257060000
  15.7070470000   18.4218930000   17.0211810000
  14.8341220000   19.5114940000   18.8567310000
  12.5304070000   19.4842540000   19.3106120000
  11.0883340000   18.3587460000   17.8975730000
  10.7433300000   16.9794110000   15.8203980000
  10.5221180000   15.5121660000   13.7839390000
  11.4986930000   14.5463840000   11.9216910000
  13.8129920000   14.7444930000   11.5812800000
  15.1521580000   15.9083840000   13.0630690000
  11.1706640000   12.2309830000   10.6267940000
  12.0435890000   13.3205840000    8.7912440000
  14.3473030000   13.2933440000    8.3373630000
  15.7893760000   12.1678360000    9.7504020000
  16.1343810000   10.7885010000   11.8275770000
  16.3555930000    9.3212560000   13.8640360000
  15.3790170000    8.3554740000   15.7262840000
  13.0647180000    8.5535830000   16.0666950000
  11.7255530000    9.7174740000   14.5849060000