Generated by Multi-Agent DFT System
1.0
  20.0098890000    0.0000000000    0.0000000000
   0.0000000000   39.2161700000    0.0000000000
   0.0000000000    0.0000000000   24.3097710000
N C H
8 104 72
Cartesian
  10.5389450000   12.3468070000    7.2736830000
   9.8124920000   26.8693630000   13.6665410000
   7.4519450000   24.0953070000    7.2736830000
   6.7254920000   15.1208630000   13.6665410000
   7.2048760000   30.8753660000   17.0217680000
   7.9313290000    8.3408040000   10.6289110000
  10.2918760000   19.1268660000   17.0217680000
  11.0183290000   20.0893040000   10.6289110000
  13.7620370000   10.5187400000    7.5375810000
  13.6145240000    9.6432420000    6.5048780000
  12.4354470000    9.6794280000    5.7211140000
  11.4475670000   10.5650300000    5.9768280000
   9.5719740000   14.0799460000    8.6004570000
   9.6193880000   14.9079800000    9.6719000000
  10.7267720000   14.9354720000   10.5323780000
  11.7962580000   14.1262350000   10.2920070000
  12.8381240000   12.3453970000    8.9201000000
  12.7493440000   11.4583860000    7.8486570000
  11.5591910000   11.4882270000    7.0482710000
  10.6450560000   13.1901140000    8.3230070000
  11.7830190000   13.2185460000    9.1860430000
  13.0355850000   28.6974300000   13.9304380000
  12.8880710000   29.5729280000   12.8977360000
  11.7089950000   29.5367420000   12.1139710000
  10.7211140000   28.6511400000   12.3696860000
   8.8455210000   25.1362240000   14.9933140000
   8.8929350000   24.3081900000   16.0647570000
  10.0003200000   24.2806980000   16.9252360000
  11.0698050000   25.0899350000   16.6848640000
  12.1116710000   26.8707730000   15.3129570000
  12.0228910000   27.7577840000   14.2415140000
  10.8327380000   27.7279430000   13.4411280000
   9.9186030000   26.0260560000   14.7158640000
  11.0565670000   25.9976240000   15.5789000000
  10.6750370000   22.2672400000    7.5375810000
  10.5275240000   21.3917420000    6.5048780000
   9.3484470000   21.4279280000    5.7211140000
   8.3605670000   22.3135300000    5.9768280000
   6.4849740000   25.8284460000    8.6004570000
   6.5323880000   26.6564800000    9.6719000000
   7.6397720000   26.6839720000   10.5323780000
   8.7092580000   25.8747350000   10.2920070000
   9.7511240000   24.0938970000    8.9201000000
   9.6623440000   23.2068860000    7.8486570000
   8.4721910000   23.2367270000    7.0482710000
   7.5580560000   24.9386140000    8.3230070000
   8.6960190000   24.9670460000    9.1860430000
   9.9485850000   16.9489300000   13.9304380000
   9.8010710000   17.8244280000   12.8977360000
   8.6219950000   17.7882420000   12.1139710000
   7.6341140000   16.9026400000   12.3696860000
   5.7585210000   13.3877240000   14.9933140000
   5.8059350000   12.5596900000   16.0647570000
   6.9133200000   12.5321980000   16.9252360000
   7.9828050000   13.3414350000   16.6848640000
   9.0246710000   15.1222730000   15.3129570000
   8.9358910000   16.0092840000   14.2415140000
   7.7457380000   15.9794430000   13.4411280000
   6.8316030000   14.2775560000   14.7158640000
   7.9695670000   14.2491240000   15.5789000000
  10.3917430000   31.3800820000   15.1377930000
  10.1603340000   32.6324720000   14.6966860000
   8.9691460000   33.3293930000   15.0137710000
   8.0090050000   32.7375040000   15.7642930000
   6.3909050000   29.0637480000   18.3060930000
   6.5249450000   27.8083030000   18.8162430000
   7.7187820000   27.0831860000   18.6116710000
   8.7307490000   27.6005900000   17.8777710000
   9.5840460000   29.4683660000   16.4972980000
   9.4115240000   30.7364990000   15.9563340000
   8.1888060000   31.4125080000   16.2629360000
   7.4136660000   29.6394240000   17.5315340000
   8.6057810000   28.8940990000   17.3040760000
  11.1181950000    7.8360880000    8.7449360000
  10.8867860000    6.5836980000    8.3038280000
   9.6955990000    5.8867770000    8.6209140000
   8.7354570000    6.4786660000    9.3714360000
   7.1173580000   10.1524220000   11.9132360000
   7.2513980000   11.4078670000   12.4233860000
   8.4452350000   12.1329840000   12.2188140000
   9.4572010000   11.6155800000   11.4849140000
  10.3104990000    9.7478040000   10.1044410000
  10.1379770000    8.4796710000    9.5634770000
   8.9152580000    7.8036620000    9.8700780000
   8.1401180000    9.5767460000   11.1386770000
   9.3322340000   10.3220710000   10.9112190000
  13.4787430000   19.6315820000   15.1377930000
  13.2473340000   20.8839720000   14.6966860000
  12.0561460000   21.5808930000   15.0137710000
  11.0960050000   20.9890040000   15.7642930000
   9.4779050000   17.3152480000   18.3060930000
   9.6119450000   16.0598030000   18.8162430000
  10.8057820000   15.3346860000   18.6116710000
  11.8177490000   15.8520900000   17.8777710000
  12.6710460000   17.7198660000   16.4972980000
  12.4985240000   18.9879990000   15.9563340000
  11.2758060000   19.6640080000   16.2629360000
  10.5006660000   17.8909240000   17.5315340000
  11.6927810000   17.1455990000   17.3040760000
  14.2051950000   19.5845880000    8.7449360000
  13.9737860000   18.3321980000    8.3038280000
  12.7825990000   17.6352770000    8.6209140000
  11.8224570000   18.2271660000    9.3714360000
  10.2043580000   21.9009220000   11.9132360000
  10.3383980000   23.1563670000   12.4233860000
  11.5322350000   23.8814840000   12.2188140000
  12.5442010000   23.3640800000   11.4849140000
  13.3974990000   21.4963040000   10.1044410000
  13.2249770000   20.2281710000    9.5634770000
  12.0022580000   19.5521620000    9.8700780000
  11.2271180000   21.3252460000   11.1386770000
  12.4192340000   22.0705710000   10.9112190000
  14.5568700000   10.4982980000    8.0570640000
  14.2976980000    9.0109380000    6.3118140000
  12.3377280000    9.0696800000    5.0000000000
  10.6684170000   10.5687890000    5.4334360000
   8.8134520000   14.0933390000    8.0276570000
   8.8842070000   15.4843620000    9.8445070000
  10.7311550000   15.5172570000   11.2816210000
  12.5550700000   14.1638300000   10.8622500000
  13.6151310000   12.3569110000    9.4660500000
  13.8304170000   28.7178720000   14.4499210000
  13.5712450000   30.2052320000   12.7046710000
  11.6112750000   30.1464890000   11.3928570000
   9.9419640000   28.6473810000   11.8262930000
   8.0870000000   25.1228310000   14.4205140000
   8.1577540000   23.7318090000   16.2373640000
  10.0047020000   23.6989130000   17.6744780000
  11.8286170000   25.0523400000   17.2551070000
  12.8886790000   26.8592590000   15.8589070000
  11.4698700000   22.2467980000    8.0570640000
  11.2106980000   20.7594380000    6.3118140000
   9.2507280000   20.8181800000    5.0000000000
   7.5814170000   22.3172890000    5.4334360000
   5.7264520000   25.8418390000    8.0276570000
   5.7972070000   27.2328610000    9.8445070000
   7.6441550000   27.2657570000   11.2816210000
   9.4680700000   25.9123300000   10.8622500000
  10.5281310000   24.1054110000    9.4660500000
  10.7434170000   16.9693720000   14.4499210000
  10.4842450000   18.4567320000   12.7046710000
   8.5242750000   18.3979900000   11.3928570000
   6.8549640000   16.8988810000   11.8262930000
   5.0000000000   13.3743310000   14.4205140000
   5.0707540000   11.9833090000   16.2373640000
   6.9177020000   11.9504130000   17.6744780000
   8.7416170000   13.3038400000   17.2551070000
   9.8016790000   15.1107590000   15.8589070000
  11.1964360000   30.9312890000   14.9076500000
  10.8148220000   33.0601180000   14.1584070000
   8.8418940000   34.2161700000   14.6992430000
   7.2080890000   33.2081490000   15.9611930000
   5.5967440000   29.5567150000   18.4761430000
   5.8131840000   27.4184880000   19.3097710000
   7.8127300000   26.2201410000   18.9965210000
   9.5254900000   27.0989290000   17.7460780000
  10.3809380000   28.9857380000   16.3140780000
  11.9228890000    8.2848810000    8.5147930000
  11.5412750000    6.1560530000    7.7655500000
   9.5683470000    5.0000000000    8.3063860000
   7.9345410000    6.0080210000    9.5683360000
   6.3231970000    9.6594550000   12.0832860000
   6.5396370000   11.7976820000   12.9169140000
   8.5391830000   12.9960290000   12.6036640000
  10.2519430000   12.1172410000   11.3532210000
  11.1073910000   10.2304320000    9.9212210000
  14.2834360000   19.1827890000   14.9076500000
  13.9018220000   21.3116170000   14.1584070000
  11.9288940000   22.4676700000   14.6992430000
  10.2950890000   21.4596490000   15.9611930000
   8.6837440000   17.8082150000   18.4761430000
   8.9001840000   15.6699880000   19.3097710000
  10.8997300000   14.4716410000   18.9965210000
  12.6124900000   15.3504290000   17.7460780000
  13.4679380000   17.2372380000   16.3140780000
  15.0098890000   20.0333810000    8.5147930000
  14.6282750000   17.9045530000    7.7655500000
  12.6553470000   16.7485000000    8.3063860000
  11.0215410000   17.7565210000    9.5683360000
   9.4101970000   21.4079550000   12.0832860000
   9.6266370000   23.5461820000   12.9169140000
  11.6261830000   24.7445290000   12.6036640000
  13.3389430000   23.8657410000   11.3532210000
  14.1943910000   21.9789320000    9.9212210000