SYSTEM = acridine_polymorphs
ISTART = 0
ICHARG = 2
ENCUT = 850.0
ISMEAR = 1
SIGMA = 0.05
IBRION = 2
NSW = 150
ISIF = 3
EDIFF = 1e-08
EDIFFG = -0.01
PREC = High
LWAVE = .TRUE.
LCHARG = .TRUE.
ALGO = Normal
NELM = 100
NELMIN = 4
GGA = PE