Generated by Multi-Agent DFT System
1.0
  21.6492080000    0.0000000000    0.0000000000
   0.0000000000   34.5764380000    0.0000000000
   0.0000000000    0.0000000000   28.6789020000
N C H
8 104 72
Cartesian
   8.5966310000   15.8458120000   21.8197690000
  12.3210600000   25.2548620000   14.9677030000
  13.0525770000   18.7306260000    6.8591330000
   9.3281480000    9.3215760000   13.7111990000
  12.5602210000    9.8321110000    8.5183090000
   9.8205040000   19.2411610000   12.0520230000
   9.0889870000   24.7443270000   20.1605930000
  11.8287040000   15.3352770000   16.6268780000
   6.7929040000   16.7321440000   20.4398520000
   6.5506090000   14.5729550000   21.4706140000
   8.0862510000   16.8177670000   21.0455620000
   6.0456770000   15.5912030000   20.6831090000
   7.8498000000   14.7502220000   22.0317270000
   8.8618570000   17.9871230000   20.8308480000
   8.3682220000   13.7231300000   22.8648010000
   6.3562350000   17.8113620000   19.6289950000
   5.8432110000   13.3757480000   21.7634950000
   7.1362710000   18.8979190000   19.4324440000
   8.3991980000   18.9848590000   20.0524250000
   7.6523060000   12.6089100000   23.1242750000
   6.3723020000   12.4288210000   22.5657570000
  14.1247870000   26.1411940000   16.3476190000
  14.3670820000   23.9820050000   15.3168580000
  12.8314400000   26.2268170000   15.7419090000
  14.8720140000   25.0002530000   16.1043620000
  13.0678910000   24.1592720000   14.7557450000
  12.0558350000   27.3961730000   15.9566240000
  12.5494690000   23.1321800000   13.9226700000
  14.5614570000   27.2204120000   17.1584760000
  15.0744800000   22.7847980000   15.0239760000
  13.7814210000   28.3069690000   17.3550280000
  12.5184930000   28.3939090000   16.7350470000
  13.2653850000   22.0179600000   13.6631960000
  14.5453890000   21.8378710000   14.2217140000
  14.8563040000   17.8442940000    8.2390490000
  15.0985990000   20.0034830000    7.2082880000
  13.5629570000   17.7586720000    7.6333390000
  15.6035310000   18.9852350000    7.9957920000
  13.7994080000   19.8262160000    6.6471750000
  12.7873510000   16.5893150000    7.8480540000
  13.2809860000   20.8533080000    5.8141010000
  15.2929740000   16.7650760000    9.0499060000
  15.8059970000   21.2006900000    6.9154060000
  14.5129370000   15.6785190000    9.2464580000
  13.2500100000   15.5915790000    8.6264770000
  13.9969020000   21.9675280000    5.5546260000
  15.2769060000   22.1476170000    6.1131450000
   7.5244210000    8.4352440000   12.3312820000
   7.2821260000   10.5944330000   13.3620440000
   8.8177680000    8.3496220000   12.9369930000
   6.7771940000    9.5761850000   12.5745400000
   8.5813170000   10.4171660000   13.9231570000
   9.5933740000    7.1802650000   12.7222780000
   9.0997390000   11.4442580000   14.7562310000
   7.0877520000    7.3560260000   11.5204250000
   6.5747280000   11.7916400000   13.6549250000
   7.8677880000    6.2694690000   11.3238740000
   9.1307150000    6.1825290000   11.9438550000
   8.3838230000   12.5584780000   15.0157060000
   7.1038190000   12.7385670000   14.4571870000
  12.2390320000    8.5633950000    8.2276970000
  11.6679360000   10.5571730000    9.2231050000
  10.4068810000   10.0404280000    9.6520490000
  10.1053940000    8.7284300000    9.3273820000
  11.0088300000    7.9567000000    8.6173950000
  11.9956730000   11.8951400000    9.5662600000
  13.1771070000    7.7867720000    7.5037640000
   9.5442110000   10.8838550000   10.4012810000
  12.9279910000    6.4937800000    7.2040720000
  10.7866840000    6.5969040000    8.2744030000
   9.9011410000   12.1442910000   10.7168660000
  11.7159090000    5.8912250000    7.5947420000
  11.1414570000   12.6533210000   10.2890580000
  10.1416930000   17.9724450000   12.3426340000
  10.7127890000   19.9662230000   11.3472260000
  11.9738440000   19.4494780000   10.9182830000
  12.2753310000   18.1374800000   11.2429500000
  11.3718950000   17.3657500000   11.9529370000
  10.3850520000   21.3041900000   11.0040720000
   9.2036180000   17.1958220000   13.0665680000
  12.8365140000   20.2929050000   10.1690510000
   9.4527340000   15.9028300000   13.3662600000
  11.5940410000   16.0059540000   12.2959290000
  12.4795840000   21.5533410000    9.8534660000
  10.6648160000   15.3002750000   12.9755890000
  11.2392680000   22.0623710000   10.2812740000
   9.4101760000   26.0130430000   20.4512040000
   9.9812730000   24.0192650000   19.4557960000
  11.2423270000   24.5360100000   19.0268530000
  11.5438140000   25.8480080000   19.3515200000
  10.6403780000   26.6197380000   20.0615060000
   9.6535350000   22.6812980000   19.1126420000
   8.4721010000   26.7896660000   21.1751370000
  12.1049970000   23.6925830000   18.2776210000
   8.7212170000   28.0826580000   21.4748300000
  10.8625250000   27.9795340000   20.4044990000
  11.7480670000   22.4321470000   17.9620360000
   9.9332990000   28.6852130000   21.0841590000
  10.5077510000   21.9231170000   18.3898440000
  11.5075150000   16.6039930000   16.3362670000
  10.9364190000   14.6102150000   17.3316750000
   9.6753640000   15.1269600000   17.7606190000
   9.3738770000   16.4389580000   17.4359520000
  10.2773130000   17.2106880000   16.7259650000
  11.2641570000   13.2722480000   17.6748300000
  12.4455900000   17.3806160000   15.6123340000
   8.8126940000   14.2835330000   18.5098510000
  12.1964740000   18.6736080000   15.3126410000
  10.0551670000   18.5704840000   16.3829730000
   9.1696240000   13.0230970000   18.8254360000
  10.9843920000   19.2761630000   15.7033120000
  10.4099400000   12.5140670000   18.3976280000
   5.1965140000   15.5099090000   20.3138450000
   9.6978490000   18.0654070000   21.2317350000
   9.2146210000   13.8200430000   23.2377950000
   5.5192480000   17.7699620000   19.2256750000
   5.0000000000   13.2423280000   21.3955280000
   6.8389450000   19.5896730000   18.8867370000
   8.9220540000   19.7439810000   19.9213900000
   8.0083070000   11.9532880000   23.6789020000
   5.8901960000   11.6559620000   22.7496600000
  15.7211770000   24.9189590000   16.4736260000
  11.2198420000   27.4744570000   15.5557360000
  11.7030710000   23.2290930000   13.5496760000
  15.3984430000   27.1790120000   17.5617970000
  15.9176910000   22.6513780000   15.3919430000
  14.0787460000   28.9987230000   17.9007350000
  11.9956370000   29.1530310000   16.8660810000
  12.9093850000   21.3623380000   13.1085700000
  15.0274950000   21.0650120000   14.0378120000
  16.4526940000   19.0665290000    8.3650570000
  11.9513590000   16.5110310000    7.4471660000
  12.4345880000   20.7563950000    5.4411060000
  16.1299600000   16.8064760000    9.4532270000
  16.6492080000   21.3341110000    7.2833730000
  14.8102630000   14.9867650000    9.7921650000
  12.7271540000   14.8324570000    8.7575110000
  13.6409020000   22.6231500000    5.0000000000
  15.7590120000   22.9204760000    5.9292420000
   5.9280310000    9.6574790000   12.2052750000
  10.4293660000    7.1019810000   13.1231650000
   9.9461370000   11.3473450000   15.1292260000
   6.2507650000    7.3974260000   11.1171050000
   5.7315170000   11.9250610000   13.2869580000
   7.5704620000    5.5777150000   10.7781670000
   9.6535710000    5.4234070000   11.8128200000
   8.7398230000   13.2141000000   15.5703320000
   6.6217130000   13.5114260000   14.6410900000
   9.2910680000    8.3627940000    9.5878290000
  12.8082960000   12.2543770000    9.2910550000
  13.9779350000    8.1727310000    7.2314790000
   8.7179870000   10.5607480000   10.6792420000
  13.5600770000    5.9973590000    6.7368560000
   9.9898710000    6.1855400000    8.5223630000
   9.3279330000   12.6777850000   11.2176510000
  11.5542100000    5.0000000000    7.3822980000
  11.3766750000   13.5264810000   10.5073410000
  13.0896570000   17.7718440000   10.9825030000
   9.5724290000   21.6634270000   11.2792770000
   8.4027900000   17.5817810000   13.3388530000
  13.6627380000   19.9697980000    9.8910890000
   8.8206480000   15.4064090000   13.8334760000
  12.3908540000   15.5945900000   12.0479690000
  13.0527920000   22.0868350000    9.3526800000
  10.8265150000   14.4090500000   13.1880340000
  11.0040500000   22.9355310000   10.0629910000
  12.3581400000   26.2136440000   19.0910730000
   8.8409120000   22.3220610000   19.3878460000
   7.6712730000   26.4037070000   21.4474230000
  12.9312210000   24.0156900000   17.9996590000
   8.0891310000   28.5790790000   21.9420460000
  11.6593370000   28.3908980000   20.1565390000
  12.3212750000   21.8986540000   17.4612500000
  10.0949980000   29.5764380000   21.2966040000
  10.2725330000   21.0499570000   18.1715610000
   8.5595510000   16.8045940000   17.6963990000
  12.0767790000   12.9130110000   17.3996250000
  13.2464180000   16.9946570000   15.3400480000
   7.9864700000   14.6066400000   18.7878120000
  12.8285600000   19.1700290000   14.8454260000
   9.2583540000   18.9818480000   16.6309330000
   8.5964160000   12.4896040000   19.3262210000
  10.8226930000   20.1673880000   15.4908680000
  10.6451580000   11.6409070000   18.6159110000