Generated by Multi-Agent DFT System
1.0
  21.6927980000    0.0000000000    0.0000000000
   0.0000000000   34.6694000000    0.0000000000
   0.0000000000    0.0000000000   28.6817510000
N C D
8 104 72
Cartesian
   9.3728190000   18.7553950000   13.7195460000
  13.0499780000    9.3753950000    6.9097260000
  12.3199790000   15.9140050000   14.9622050000
   8.6428200000   25.2940050000   21.7720250000
   9.8414960000    9.8948590000   12.0671780000
  12.5813010000   19.2748590000    8.5620950000
  11.8513020000   24.7745410000   16.6145730000
   9.1114970000   15.3945410000   20.1196560000
   7.5504700000   17.8712360000   12.3374190000
   7.3152450000   20.0318250000   13.3761890000
   8.8484030000   17.7843770000   12.9413550000
   8.6189090000   19.8579200000   13.9301990000
   9.6293030000   16.6197560000   12.7255480000
   9.1457900000   20.8810900000   14.7676570000
   7.1112170000   16.7854070000   11.5241190000
   6.8035660000   19.0146580000   12.5838250000
   6.6048050000   21.2349040000   13.6725200000
   9.1617940000   15.6181600000   11.9380160000
   7.8962280000   15.7044560000   11.3228070000
   8.4244060000   21.9999370000   15.0317780000
   7.1403230000   22.1822840000   14.4745470000
  14.8723270000    8.4912360000    8.2918540000
  15.1075530000   10.6518250000    7.2530840000
  13.5743940000    8.4043770000    7.6879180000
  13.8038880000   10.4779200000    6.6990730000
  12.7934940000    7.2397560000    7.9037240000
  13.2770080000   11.5010900000    5.8616160000
  15.3115800000    7.4054070000    9.1051540000
  15.6192310000    9.6346580000    8.0454480000
  15.8179920000   11.8549040000    6.9567530000
  13.2610030000    6.2381600000    8.6912570000
  14.5265690000    6.3244560000    9.3064660000
  13.9983910000   12.6199370000    5.5974940000
  15.2824740000   12.8022840000    6.1547260000
  14.1423290000   16.7981640000   16.3443320000
  14.3775540000   14.6375750000   15.3055630000
  12.8443950000   16.8850230000   15.7403960000
  13.0738890000   14.8114800000   14.7515520000
  12.0634950000   18.0496440000   15.9562030000
  12.5470090000   13.7883100000   13.9140940000
  14.5815810000   17.8839930000   17.1576330000
  14.8892320000   15.6547420000   16.0979260000
  15.0879930000   13.4344960000   15.0092310000
  12.5310040000   19.0512400000   16.7437350000
  13.7965700000   18.9649440000   17.3589450000
  13.2683920000   12.6694630000   13.6499730000
  14.5524750000   12.4871160000   14.2072040000
   6.8204710000   26.1781640000   20.3898980000
   6.5852460000   24.0175750000   21.4286670000
   8.1184040000   26.2650230000   20.9938330000
   7.8889100000   24.1914800000   21.9826780000
   8.8993040000   27.4296440000   20.7780270000
   8.4157910000   23.1683100000   22.8201360000
   6.3812180000   27.2639930000   19.5765970000
   6.0735670000   25.0347420000   20.6363030000
   5.8748060000   22.8144960000   21.7249990000
   8.4317950000   28.4312400000   19.9904950000
   7.1662290000   28.3449440000   19.3752850000
   7.6944070000   22.0494630000   23.0842570000
   6.4103240000   21.8671160000   22.5270250000
  10.1709350000    8.6186160000   12.3696290000
  10.7435490000   10.6144930000   11.3727320000
  12.0011010000   10.0972800000   10.9459510000
  11.3993540000    8.0061020000   11.9782780000
  12.3066190000    8.7777010000   11.2728810000
  10.4102260000   11.9550820000   11.0200330000
   9.2245260000    7.8436410000   13.0879100000
  10.6859060000    5.9398760000   12.9993330000
  12.8706960000   10.9319120000   10.1906280000
  11.6258170000    6.6405620000   12.3261450000
   9.4745120000    6.5477000000   13.3890730000
  12.5062860000   12.1982120000    9.8749710000
  11.2600230000   12.7169260000   10.2969210000
  12.2518620000   17.9986160000    8.2596440000
  11.6792480000   19.9944930000    9.2565410000
  10.4216960000   19.4772800000    9.6833220000
  11.0234430000   17.3861020000    8.6509940000
  10.1161780000   18.1577010000    9.3563910000
  12.0125710000   21.3350820000    9.6092390000
  13.1982710000   17.2236410000    7.5413630000
  11.7368910000   15.3198760000    7.6299400000
   9.5521010000   20.3119120000   10.4386440000
  10.7969800000   16.0205620000    8.3031270000
  12.9482850000   15.9277000000    7.2402000000
   9.9165110000   21.5782120000   10.7543020000
  11.1627740000   22.0969260000   10.3323520000
  11.5218630000   26.0507840000   16.3121220000
  10.9492490000   24.0549070000   17.3090190000
   9.6916980000   24.5721200000   17.7358010000
  10.2934440000   26.6632980000   16.7034730000
   9.3861790000   25.8916990000   17.4088700000
  11.2825720000   22.7143180000   17.6617180000
  12.4682720000   26.8257590000   15.5938410000
  11.0068920000   28.7295240000   15.6824190000
   8.8221020000   23.7374880000   18.4911230000
  10.0669810000   28.0288380000   16.3556060000
  12.2182860000   28.1217000000   15.2926790000
   9.1865120000   22.4711880000   18.8067800000
  10.4327750000   21.9524740000   18.3848300000
   9.4409360000   16.6707840000   20.4221070000
  10.0135500000   14.6749070000   19.4252110000
  11.2711020000   15.1921200000   18.9984290000
  10.6693550000   17.2832980000   20.0307570000
  11.5766210000   16.5116990000   19.3253600000
   9.6802270000   13.3343180000   19.0725120000
   8.4945270000   17.4457590000   21.1403890000
   9.9559080000   19.3495240000   21.0518110000
  12.1406970000   14.3574880000   18.2431070000
  10.8958180000   18.6488380000   20.3786240000
   8.7445130000   18.7417000000   21.4415510000
  11.7762870000   13.0911880000   17.9274500000
  10.5300240000   12.5724740000   18.3493990000
   5.8882870000   19.1187760000   12.2472310000
   9.7070750000   14.8077280000   11.7479770000
   6.1744350000   16.8900880000   11.1520940000
  10.4961230000   16.5617880000   13.0846890000
  10.0396310000   20.7039960000   15.1944380000
   5.7299990000   21.3136960000   13.2618430000
   8.8187230000   22.6831760000   15.6292720000
   7.5732630000   14.9709400000   10.7494700000
   6.6308470000   23.0808880000   14.6951850000
  16.5345100000    9.7387760000    8.3820410000
  12.7157220000    5.4277280000    8.8812950000
  16.2483620000    7.5100880000    9.4771790000
  11.9266740000    7.1817880000    7.5445840000
  12.3831660000   11.3239960000    5.4348340000
  16.6927980000   11.9336960000    7.3674290000
  13.6040740000   13.3031760000    5.0000000000
  14.8495340000    5.5909400000    9.8798020000
  15.7919500000   13.7008880000    5.9340880000
  15.8045110000   15.5506240000   16.4345200000
  11.9857230000   19.8616720000   16.9337740000
  15.5183630000   17.7793120000   17.5296570000
  11.1966750000   18.1076120000   15.5970620000
  11.6531670000   13.9654040000   13.4873130000
  15.9627990000   13.3557040000   15.4199080000
  12.8740750000   11.9862240000   13.0524790000
  14.1195360000   19.6984600000   17.9322810000
  15.0619510000   11.5885120000   13.9865670000
   5.1582880000   24.9306240000   20.2997100000
   8.9770760000   29.2416720000   19.8004560000
   5.4444360000   27.1593120000   19.2045730000
   9.7661240000   27.4876120000   21.1371680000
   9.3096320000   23.3454040000   23.2469170000
   5.0000000000   22.7357040000   21.3143220000
   8.0887240000   21.3662240000   23.6817510000
   6.8432640000   29.0784600000   18.8019490000
   5.9008480000   20.9685120000   22.7476630000
  13.7694380000   10.5979840000   10.0247470000
  13.1701890000    8.4011880000   10.9829920000
   9.5188910000   12.2788800000   11.2970390000
   8.4398670000    8.2736200000   13.3584730000
   8.7789390000    6.0186680000   13.8738320000
  10.9996670000   13.7234000000   10.0569570000
  13.0862060000   12.7722680000    9.3161290000
  10.8446630000    5.0000000000   13.2296340000
  12.5168750000    6.2081440000   12.0056570000
   8.6533590000   19.9779840000   10.6045260000
   9.2526080000   17.7811880000    9.6462810000
  12.9039060000   21.6588800000    9.3322340000
  13.9829300000   17.6536200000    7.2707990000
  13.6438580000   15.3986680000    6.7554410000
  11.4231310000   23.1034000000   10.5723160000
   9.3365910000   22.1522680000   11.3131440000
  11.5781340000   14.3800000000    7.3996390000
   9.9059220000   15.5881440000    8.6236160000
   7.9233600000   24.0714160000   18.6570040000
   8.5226100000   26.2682120000   17.6987590000
  12.1739070000   22.3905200000   17.3847130000
  13.2529310000   26.3957800000   15.3232780000
  12.9138590000   28.6507320000   14.8079190000
  10.6931320000   20.9460000000   18.6247940000
   8.6065920000   21.8971320000   19.3656220000
  10.8481350000   29.6694000000   15.4521180000
   9.1759230000   28.4612560000   16.6760940000
  13.0394400000   14.6914160000   18.0772260000
  12.4401900000   16.8882120000   19.0354710000
   8.7888920000   13.0105200000   19.3495170000
   7.7098680000   17.0157800000   21.4109520000
   8.0489400000   19.2707320000   21.9263100000
  10.2696680000   11.5660000000   18.1094360000
  12.3562070000   12.5171320000   17.3686080000
  10.1146640000   20.2894000000   21.2821120000
  11.7868760000   19.0812560000   20.0581350000