Generated by Multi-Agent DFT System
1.0
  21.8930560000    0.0000000000    0.0000000000
   0.0000000000   20.8070160000    0.0000000000
   0.0000000000    0.0000000000   27.9294200000
N C H
4 52 36
Cartesian
   6.9806180000   12.0437820000    8.7181480000
  10.4117210000    9.0682820000   12.5041720000
  14.9124380000    8.7632340000   19.2112720000
  11.4813350000   11.7387340000   15.4252480000
   9.4228260000   14.1222880000    6.8244650000
   9.6806580000   13.2665340000    5.8017670000
   9.0129280000   12.0192040000    5.7192700000
   8.1141230000   11.6323900000    6.6636290000
   5.8537730000   12.3851910000   10.7919830000
   5.5922910000   13.1510850000   11.8860460000
   6.1795390000   14.4335250000   12.0317240000
   7.0095670000   14.9216860000   11.0727430000
   8.1956510000   14.5900960000    8.9248610000
   8.4891120000   13.7638000000    7.8447500000
   7.8375620000   12.4859410000    7.7778130000
   6.7356800000   12.8490710000    9.7706260000
   7.3236930000   14.1485320000    9.9150970000
   7.9695130000   11.1467880000   14.3978550000
   7.7116810000   10.2910340000   15.4205530000
   8.3794110000    9.0437050000   15.5030510000
   9.2782160000    8.6568900000   14.5586910000
  11.5385660000    9.4096910000   10.4303370000
  11.8000480000   10.1755850000    9.3362740000
  11.2128000000   11.4580250000    9.1905960000
  10.3827720000   11.9461860000   10.1495770000
   9.1966880000   11.6145960000   12.2974590000
   8.9032270000   10.7883000000   13.3775710000
   9.5547770000    9.5104410000   13.4445070000
  10.6566590000    9.8735710000   11.4516940000
  10.0686460000   11.1730320000   11.3072230000
  12.4702300000    6.6847280000   21.1049550000
  12.2123970000    7.5404820000   22.1276530000
  12.8801280000    8.7878120000   22.2101510000
  13.7789320000    9.1746270000   21.2657910000
  16.0392830000    8.4218250000   17.1374370000
  16.3007650000    7.6559310000   16.0433740000
  15.7135170000    6.3734910000   15.8976960000
  14.8834890000    5.8853300000   16.8566770000
  13.6974050000    6.2169200000   19.0045590000
  13.4039440000    7.0432160000   20.0846710000
  14.0554940000    8.3210750000   20.1516070000
  15.1573760000    7.9579450000   18.1587940000
  14.5693630000    6.6584840000   18.0143230000
  13.9235430000    9.6602280000   13.5315660000
  14.1813750000   10.5159820000   12.5088670000
  13.5136450000   11.7633120000   12.4263700000
  12.6148400000   12.1501260000   13.3707290000
  10.3544900000   11.3973250000   17.4990830000
  10.0930080000   10.6314310000   18.5931460000
  10.6802560000    9.3489910000   18.7388240000
  11.5102840000    8.8608300000   17.7798430000
  12.6963680000    9.1924200000   15.6319610000
  12.9898290000   10.0187160000   14.5518500000
  12.3382790000   11.2965750000   14.4849130000
  11.2363970000   10.9334450000   16.4777260000
  11.8244100000    9.6339840000   16.6221970000
   9.8653020000   15.0036310000    6.8766470000
  10.3359860000   13.5158810000    5.1113380000
   9.2023950000   11.4211290000    5.0000000000
   7.6496610000   10.7843720000    6.5949490000
   5.4630410000   11.4865900000   10.6661580000
   5.0000000000   12.8315160000   12.6004860000
   5.9764980000   14.9917290000   12.8164550000
   7.4149080000   15.8070160000   11.1450450000
   8.6123130000   15.4916130000    8.9652380000
   7.5270370000   12.0281310000   14.3456730000
   7.0563530000   10.5403810000   16.1109820000
   8.1899440000    8.4456290000   16.2223200000
   9.7426780000    7.8088720000   14.6273720000
  11.9292980000    8.5110900000   10.5561620000
  12.3923390000    9.8560160000    8.6218340000
  11.4158410000   12.0162290000    8.4058660000
   9.9774310000   12.8315160000   10.0772750000
   8.7800260000   12.5161130000   12.2570820000
  12.0277540000    5.8033850000   21.0527730000
  11.5570700000    7.2911350000   22.8180820000
  12.6906610000    9.3858870000   22.9294200000
  14.2433950000   10.0226440000   21.3344720000
  16.4300150000    9.3204260000   17.2632620000
  16.8930560000    7.9755000000   15.3289340000
  15.9165580000    5.8152870000   15.1129660000
  14.4781480000    5.0000000000   16.7843750000
  13.2807430000    5.3154030000   18.9641820000
  14.3660190000    8.7788850000   13.5837470000
  14.8367030000   10.2666350000   11.8184380000
  13.7031120000   12.3613870000   11.7071000000
  12.1503780000   12.9981440000   13.3020490000
   9.9637580000   12.2959260000   17.3732580000
   9.5007170000   10.9510000000   19.3075860000
  10.4772150000    8.7907870000   19.5235550000
  11.9156250000    7.9755000000   17.8521450000
  13.1130300000    8.2909030000   15.6723380000