Generated by Multi-Agent DFT System
1.0
  21.5543560000    0.0000000000    0.0000000000
   0.0000000000   27.8907960000    0.0000000000
   0.0000000000    0.0000000000   44.5647100000
C H N
156 108 12
Cartesian
  13.5403370000   20.5108580000   12.4364540000
  12.5974520000   19.6057870000   12.8541500000
  14.7674470000   20.5545560000   13.1504950000
  15.7492580000   21.4800610000   12.7427650000
  14.0921040000   18.8868230000   14.5800410000
  12.8291570000   18.7799370000   13.9389870000
  14.3454350000   18.0322080000   15.6754300000
  13.3599160000   21.4008400000   11.3422370000
  11.8831830000   17.8371410000   14.4349460000
  12.1779120000   17.0608050000   15.4887130000
  13.4278830000   17.1535440000   16.1074890000
  14.3244270000   22.2639430000   10.9822860000
  15.5410330000   22.2966370000   11.6933950000
  11.1034190000    7.3799380000   27.0924540000
  12.0463040000    8.2850090000   27.5101500000
   9.8763090000    7.3362400000   27.8064950000
   8.8944980000    6.4107350000   27.3987650000
  10.5516520000    9.0039730000   29.2360410000
  11.8145990000    9.1108590000   28.5949870000
  10.2983210000    9.8585880000   30.3314300000
  11.2838400000    6.4899560000   25.9982370000
  12.7605730000   10.0536550000   29.0909460000
  12.4658440000   10.8299910000   30.1447130000
  11.2158730000   10.7372520000   30.7634890000
  10.3193290000    5.6268530000   25.6382860000
   9.1027230000    5.5941590000   26.3493950000
  10.4509370000   15.2391880000   32.1282560000
   9.5080520000   16.1442590000   31.7105600000
  11.6780470000   15.1954900000   31.4142150000
  12.6598580000   14.2699850000   31.8219450000
  11.0027040000   16.8632230000   29.9846690000
   9.7397570000   16.9701090000   30.6257230000
  11.2560350000   17.7178380000   28.8892800000
  10.2705160000   14.3492060000   33.2224730000
   8.7937830000   17.9129050000   30.1297640000
   9.0885120000   18.6892410000   29.0759970000
  10.3384830000   18.5965020000   28.4572210000
  11.2350270000   13.4861030000   33.5824240000
  12.4516330000   13.4534090000   32.8713150000
   8.0140190000   12.6516080000   17.4722560000
   8.9569040000   11.7465370000   17.0545600000
   6.7869090000   12.6953060000   16.7582150000
   5.8050980000   13.6208110000   17.1659450000
   7.4622520000   11.0275730000   15.3286690000
   8.7251990000   10.9206870000   15.9697230000
   7.2089210000   10.1729580000   14.2332800000
   8.1944400000   13.5415900000   18.5664730000
   9.6711730000    9.9778910000   15.4737640000
   9.3764440000    9.2015550000   14.4199970000
   8.1264730000    9.2942940000   13.8012210000
   7.2299290000   14.4046930000   18.9264240000
   6.0133230000   14.4373870000   18.2153150000
  10.3397190000   16.8962320000   20.3389690000
   9.9350080000   15.2762830000   21.9270940000
  11.2263770000   15.4298530000   22.4916430000
  11.6533320000   17.1019870000   20.8340490000
  12.0574250000   16.3530010000   21.9127310000
   9.0570000000   14.3347450000   22.5104020000
   9.9028780000   17.6521350000   19.2333210000
   9.4277280000   13.6263120000   23.5940670000
  11.5723900000   14.6432990000   23.6321730000
  12.0092310000   18.7709780000   19.1447990000
  10.7092110000   18.5744960000   18.6620300000
  10.6987070000   13.7866410000   24.1597890000
  12.4621370000   18.0730760000   20.1885990000
  14.3040370000   10.9945640000   34.9949690000
  14.7087480000   12.6145130000   36.5830940000
  13.4173790000   12.4609430000   37.1476430000
  12.9904240000   10.7888090000   35.4900490000
  12.5863310000   11.5377950000   36.5687310000
  15.5867560000   13.5560510000   37.1664020000
  14.7408780000   10.2386610000   33.8893210000
  15.2160280000   14.2644840000   38.2500670000
  13.0713660000   13.2474970000   38.2881730000
  12.6345250000    9.1198190000   33.8007990000
  13.9345450000    9.3163000000   33.3180300000
  13.9450490000   14.1041550000   38.8157890000
  12.1816190000    9.8177200000   34.8445990000
   7.2503190000   18.8538140000   24.2257410000
   6.8456080000   20.4737630000   22.6376160000
   8.1369770000   20.3201930000   22.0730670000
   8.5639320000   18.6480590000   23.7306610000
   8.9680250000   19.3970450000   22.6519790000
   5.9676000000   21.4153010000   22.0543080000
   6.8134780000   18.0979110000   25.3313890000
   6.3383280000   22.1237340000   20.9706430000
   8.4829900000   21.1067470000   20.9325370000
   8.9198310000   16.9790690000   25.4199110000
   7.6198110000   17.1755500000   25.9026800000
   7.6093070000   21.9634050000   20.4049210000
   9.3727370000   17.6769700000   24.3761110000
  11.2146370000    9.0369820000    9.5697410000
  11.6193480000    7.4170330000    7.9816160000
  10.3279790000    7.5706030000    7.4170670000
   9.9010240000    9.2427370000    9.0746610000
   9.4969310000    8.4937510000    7.9959790000
  12.4973560000    6.4754950000    7.3983080000
  11.6514780000    9.7928850000   10.6753890000
  12.1266280000    5.7670620000    6.3146430000
   9.9819660000    6.7840490000    6.2765370000
   9.5451250000   10.9117270000   10.7639110000
  10.8451450000   10.7152460000   11.2466800000
  10.8556490000    5.9273910000    5.7489210000
   9.0922190000   10.2138260000    9.7201110000
   9.9875270000   17.6873440000   10.6897520000
  11.2436770000   17.0425710000   10.5103630000
   9.4617110000   15.9836160000   12.2925320000
  10.7425770000   15.4232510000   12.0650710000
   9.1163170000   17.1261940000   11.5984240000
  10.2797850000   13.6921730000   13.6637480000
  11.1201010000   14.2662130000   12.7846810000
  12.1377500000   17.5898890000    9.5586020000
   9.7125710000   18.8523990000    9.9399510000
   8.6090370000   15.3438730000   13.2228950000
  10.5998460000   19.3462750000    9.0570740000
   9.0069520000   14.2314750000   13.8745010000
  11.8281920000   18.6923850000    8.8595110000
   8.4774290000   10.2034520000   25.3457520000
   7.2212790000   10.8482250000   25.1663630000
   9.0032450000   11.9071800000   26.9485320000
   7.7223790000   12.4675450000   26.7210710000
   9.3486390000   10.7646020000   26.2544240000
   8.1851710000   14.1986230000   28.3197480000
   7.3448550000   13.6245830000   27.4406810000
   6.3272060000   10.3009070000   24.2146020000
   8.7523850000    9.0383970000   24.5959510000
   9.8559190000   12.5469230000   27.8788950000
   7.8651100000    8.5445210000   23.7130740000
   9.4580040000   13.6593210000   28.5305010000
   6.6367640000    9.1984110000   23.5155110000
  13.0769270000   18.0627020000   33.8749580000
  14.3330770000   18.7074750000   34.0543470000
  12.5511110000   19.7664300000   32.2721780000
  13.8319770000   20.3267950000   32.4996390000
  12.2057170000   18.6238520000   32.9662860000
  13.3691850000   22.0578730000   30.9009620000
  14.2095010000   21.4838330000   31.7800290000
  15.2271500000   18.1601570000   35.0061080000
  12.8019710000   16.8976470000   34.6247590000
  11.6984370000   20.4061730000   31.3418150000
  13.6892460000   16.4037710000   35.5076360000
  12.0963520000   21.5185710000   30.6902090000
  14.9175920000   17.0576610000   35.7051990000
  11.5668290000    9.8280940000   19.2189580000
  10.3106790000    9.1833210000   19.3983470000
  12.0926450000    8.1243660000   17.6161780000
  10.8117790000    7.5640010000   17.8436390000
  12.4380390000    9.2669440000   18.3102860000
  11.2745710000    5.8329230000   16.2449620000
  10.4342550000    6.4069630000   17.1240290000
   9.4166060000    9.7306390000   20.3501080000
  11.8417850000   10.9931490000   19.9687590000
  12.9453190000    7.4846230000   16.6858150000
  10.9545100000   11.4870250000   20.8516360000
  12.5474040000    6.3722250000   16.0342090000
   9.7261640000   10.8331350000   21.0491990000
  11.7880300000   19.5459000000   12.3983490000
  16.5543560000   21.5280020000   13.2073600000
  15.1678330000   18.0793630000   16.1063170000
  12.5603800000   21.3849640000   10.8682620000
  11.0527520000   17.7587060000   14.0222330000
  11.5464390000   16.4572140000   15.8102650000
  13.6262230000   16.6002530000   16.8273920000
  14.1897290000   22.8389250000   10.2644350000
  16.2083430000   22.8907960000   11.4339840000
  12.8557260000    8.3448960000   27.0543490000
   8.0894000000    6.3627940000   27.8633600000
   9.4759230000    9.8114330000   30.7623170000
  12.0833760000    6.5058320000   25.5242620000
  13.5910040000   10.1320900000   28.6782330000
  13.0973170000   11.4335820000   30.4662650000
  11.0175330000   11.2905430000   31.4833920000
  10.4540270000    5.0518710000   24.9204350000
   8.4354130000    5.0000000000   26.0899840000
   8.6986300000   16.2041460000   32.1663610000
  13.4649560000   14.2220440000   31.3573500000
  12.0784330000   17.6706830000   28.4583930000
   9.4709800000   14.3650820000   33.6964480000
   7.9633520000   17.9913400000   30.5424770000
   8.4570390000   19.2928320000   28.7544450000
  10.5368230000   19.1497930000   27.7373180000
  11.1003290000   12.9111210000   34.3002750000
  13.1189430000   12.8592500000   33.1307260000
   9.7663260000   11.6866500000   17.5103610000
   5.0000000000   13.6687520000   16.7013500000
   6.3865230000   10.2201140000   13.8023930000
   8.9939760000   13.5257140000   19.0404480000
  10.5016040000    9.8994560000   15.8864770000
  10.0079170000    8.5979640000   14.0984450000
   7.9281330000    8.7410030000   13.0813180000
   7.3646270000   14.9796750000   19.6442750000
   5.3460130000   15.0315460000   18.4747260000
  12.9125710000   16.4745050000   22.2559740000
   8.2135940000   14.2031810000   22.1416570000
   9.0489680000   17.5150690000   18.8909570000
   8.8302380000   13.0227220000   23.9736570000
  12.4176490000   14.7313230000   24.0117630000
  12.5628510000   19.3965740000   18.7326720000
  10.3996530000   19.0790600000   17.9441790000
  10.9353550000   13.2899370000   24.9087100000
  13.3246970000   18.2271170000   20.5001850000
  11.7311850000   11.4162910000   36.9119740000
  16.4301620000   13.6876150000   36.7976570000
  15.5947880000   10.3757270000   33.5469570000
  15.8135180000   14.8680740000   38.6296570000
  12.2261070000   13.1594730000   38.6677630000
  12.0809050000    8.4942220000   33.3886720000
  14.2441030000    8.8117360000   32.6001790000
  13.7084010000   14.6008590000   39.5647100000
  11.3190590000    9.6636790000   35.1561850000
   9.8231710000   19.2755410000   22.3087360000
   5.1241940000   21.5468650000   22.4230530000
   5.9595680000   18.2349770000   25.6737530000
   5.7408380000   22.7273240000   20.5910530000
   9.3282490000   21.0187230000   20.5529470000
   9.4734510000   16.3534720000   25.8320380000
   7.3102530000   16.6709860000   26.6205310000
   7.8459550000   22.4601090000   19.6560000000
  10.2352970000   17.5229290000   24.0645250000
   8.6417850000    8.6152550000    7.6527360000
  13.3407620000    6.3439310000    7.7670530000
  12.5053880000    9.6558190000   11.0177530000
  12.7241180000    5.1634720000    5.9350530000
   9.1367070000    6.8720730000    5.8969470000
   8.9915050000   11.5373240000   11.1760380000
  11.1547030000   11.2198100000   11.9645310000
  10.6190010000    5.4306870000    5.0000000000
   8.2296590000   10.3678670000    9.4085250000
   8.2877390000   17.5213570000   11.7446910000
  10.5454730000   12.9346980000   14.1336190000
  11.9622720000   13.8966710000   12.6475010000
  12.9582940000   17.1755500000    9.4143870000
   8.9000590000   19.2881160000   10.0592510000
   7.7637770000   15.6948670000   13.3861630000
  10.4002710000   20.1180530000    8.5789950000
   8.4273800000   13.8180780000   14.4736380000
  12.4330960000   19.0287610000    8.2360450000
  10.1772170000   10.3694390000   26.4006910000
   7.9194830000   14.9560980000   28.7896190000
   6.5026840000   13.9941250000   27.3035010000
   5.5066620000   10.7152460000   24.0703870000
   9.5648970000    8.6026800000   24.7152510000
  10.7011790000   12.1959290000   28.0421630000
   8.0646850000    7.7727430000   23.2349950000
  10.0375760000   14.0727180000   29.1296380000
   6.0318600000    8.8620350000   22.8920450000
  11.3771390000   18.2286890000   32.8200190000
  13.6348730000   22.8153480000   30.4310910000
  15.0516720000   21.8533750000   31.9172090000
  16.0476940000   18.5744960000   35.1503230000
  11.9894590000   16.4619300000   34.5054590000
  10.8531770000   20.0551790000   31.1785470000
  13.4896710000   15.6319930000   35.9857150000
  11.5167800000   21.9319680000   30.0910720000
  15.5224960000   16.7212850000   36.3286650000
  13.2666170000    9.6621070000   18.1640190000
  11.0088830000    5.0754480000   15.7750910000
   9.5920840000    6.0374210000   17.2612090000
   8.5960620000    9.3163000000   20.4943230000
  12.6542970000   11.4288660000   19.8494590000
  13.7905790000    7.8356170000   16.5225470000
  11.1540850000   12.2588030000   21.3297150000
  13.1269760000    5.9588280000   15.4350720000
   9.1212600000   11.1695110000   21.6726650000
  15.0312820000   19.7532270000   14.1983990000
   9.6124740000    8.1375690000   28.8543990000
  11.9418820000   15.9968190000   30.3663110000
   6.5230740000   11.8939770000   15.7103110000
   9.5049630000   15.9914750000   20.8783100000
  15.1387930000   11.8993210000   35.5343100000
   6.4155630000   19.7585710000   23.6864000000
  12.0493930000    8.1322250000    9.0304000000
  11.6193480000   15.9499780000   11.1986080000
   6.8456080000   11.9408180000   25.8546080000
  14.7087480000   19.8000680000   33.3661020000
   9.9350080000    8.0907280000   18.7101020000